c --- [ banner ] -------------------------------------------------------------
c 
c CaDiCaL Radically Simplified CDCL SAT Solver
c Copyright (c) 2016-2021 A. Biere, M. Fleury, N. Froleyks
c 
c Version 1.5.2 ca9bff05c11bde5eae4912f9932871d1527e61d8
c g++ (GCC) 9.3.0 -Wall -Wextra -O3 -DNDEBUG
c Sun May 1 02:23:23 EDT 2022 Linux gra-login1 3.10.0-1160.59.1.el7.x86_64 x86_64
c 
c --- [ limit ] --------------------------------------------------------------
c 
c setting conflict limit to 200000 conflicts (due to '200000')
c 
c --- [ parsing input ] ------------------------------------------------------
c 
c reading DIMACS file from '12.cubes317.adj'
c opening file to read '12.cubes317.adj'
c found 'p cnf 5320 924210' header
c parsed 924210 clauses in 8.88 seconds process time
c closing file '12.cubes317.adj'
c after reading 686668114 bytes 654.9 MB
c 
c --- [ options ] ------------------------------------------------------------
c 
c all options are set to their default value
c 
c --- [ solving ] ------------------------------------------------------------
c 
c time measured in process time since initialization
c 
c  seconds   reductions  redundant  irredundant
c          MB    restarts       trail      variables
c           level   conflicts       glue        remaining
c 
c *  8.88 691  0 0   0    0    0  0% 0 923580 3900 73%
c {  9.81 727  0 0   0    0    0  0% 0 923580 3900 73%
c i 11.10 738 66 0  11  113   88 49% 18 923580 3899 73%
c i 11.10 738 66 0  11  114   88 49% 18 923580 3898 73%
c i 11.10 738 65 0  11  115   88 49% 18 923580 3897 73%
c i 11.10 738 65 0  11  116   88 48% 18 923580 3896 73%
c i 11.10 738 64 0  11  117   88 48% 18 923580 3895 73%
c i 11.10 738 64 0  11  118   88 48% 17 923580 3894 73%
c i 11.10 738 63 0  11  119   88 48% 17 923580 3893 73%
c i 11.10 738 63 0  11  120   88 48% 17 923580 3892 73%
c i 11.55 740 61 0  24  176  136 49% 22 923580 3882 73%
c i 11.69 741 64 0  24  192  142 48% 21 923580 3873 73%
c i 11.72 741 65 0  24  196  145 48% 21 923580 3872 73%
c i 11.76 741 66 0  24  203  150 48% 22 923580 3867 73%
c - 14.15 702 73 1  30  300  223 47% 21 131779 3855 72%
c i 14.24 702 72 1  30  307  229 47% 22 131779 3854 72%
c i 14.25 702 72 1  32  312  232 47% 22 131779 3853 72%
c i 14.39 702 69 1  38  342  260 47% 22 131779 3852 72%
c i 14.48 702 60 1  38  409  301 48% 20 131779 3851 72%
c i 14.48 702 59 1  38  410  301 48% 20 131779 3850 72%
c 
c  seconds   reductions  redundant   irredundant
c          MB    restarts       trail       variables
c           level   conflicts       glue         remaining
c 
c i 14.52 702 56 1  38  445  324 48% 19 131779 3838 72%
c i 14.57 702 54 1  38  470  347 49% 19 131779 3836 72%
c i 14.65 702 53 1  42  504  371 48% 19 131779 3835 72%
c i 14.65 702 54 1  42  505  371 48% 19 131779 3834 72%
c i 14.81 702 57 1  47  553  416 48% 20 131779 3824 72%
c i 14.91 702 56 1  57  594  451 49% 20 131779 3823 72%
c i 15.06 702 50 1  64  694  494 48% 19 131779 3822 72%
c i 15.11 702 49 1  64  743  508 48% 19 131779 3821 72%
c i 15.17 702 48 1  65  803  552 49% 19 131779 3820 72%
c i 15.28 702 45 1  67  896  620 49% 19 131779 3819 72%
c - 15.54 744 42 2  67  973  553 49% 18 131388 3819 72%
c i 15.59 744 42 2  67  991  564 49% 18 131388 3818 72%
c } 15.60 744 42 2  67 1000  568 49% 18 131388 3818 72%
c [ 15.60 744  0 2  67 1000  568  0% 0 131388 3818 72%
c O 15.60 744 10 2  67 1002  570 45% 9 131388 3818 72%
c i 15.61 744  4 2  67 1011  572 37% 3 131388 3771 71%
c i 15.68 744 12 2  67 1071  607 44% 8 131388 3770 71%
c i 15.71 744 15 2  67 1131  645 48% 11 131388 3769 71%
c i 15.71 744 15 2  67 1155  659 49% 12 131388 3768 71%
c i 15.72 744 15 2  67 1173  673 49% 12 131388 3767 71%
c 
c  seconds   reductions  redundant   irredundant
c          MB    restarts       trail       variables
c           level   conflicts       glue         remaining
c 
c i 15.72 744 15 2  67 1175  674 50% 12 131388 3766 71%
c i 15.73 744 15 2  67 1216  707 50% 12 131388 3765 71%
c i 15.73 744 15 2  67 1227  717 51% 12 131388 3764 71%
c i 15.73 744 15 2  67 1231  720 51% 12 131388 3763 71%
c i 15.74 744 15 2  67 1259  732 51% 12 131388 3762 71%
c i 15.75 744 15 2  67 1281  751 51% 11 131388 3761 71%
c i 15.77 744 14 2  67 1311  777 52% 11 131388 3760 71%
c i 15.78 744 15 2  67 1340  803 52% 11 131388 3759 71%
c i 15.79 744 14 2  67 1401  831 52% 11 131388 3758 71%
c i 15.81 744 16 2  67 1451  858 52% 13 131388 3757 71%
c i 15.88 744 18 2  67 1769 1074 53% 14 131388 3756 71%
c i 15.88 744 18 2  67 1774 1078 53% 14 131388 3755 71%
c i 15.91 744 17 2  67 1878 1147 53% 14 131388 3754 71%
c i 15.92 744 17 2  67 1937 1181 53% 14 131388 3753 71%
c - 16.08 717 17 3  67 1982  922 53% 14 130810 3753 71%
c i 16.20 717 16 3  68 2097 1001 53% 13 130810 3752 71%
c i 16.28 717 16 3  68 2232 1101 53% 13 130810 3751 71%
c i 16.53 717 24 3  68 2895 1563 53% 18 130810 3750 70%
c ] 16.57 717 24 3  68 3001 1616 53% 19 130810 3750 70%
c { 16.57 717 42 3  68 3001 1616 49% 18 130810 3750 70%
c 
c  seconds   reductions  redundant   irredundant
c          MB    restarts       trail       variables
c           level   conflicts       glue         remaining
c 
c F 16.72 717 42 3  68 3003 1617 29% 18 130801 3750 70%
c i 16.78 717 39 3  68 3083 1669 29% 17 130801 3749 70%
c i 17.07 717 42 3  96 3225 1784 29% 18 130801 3748 70%
c i 17.13 717 42 3 103 3256 1812 29% 18 130801 3747 70%
c - 17.28 678 41 4 106 3322 1391 29% 18 130792 3747 70%
c i 17.38 678 42 4 114 3380 1436 29% 18 130792 3746 70%
c i 17.38 678 42 4 114 3382 1437 29% 18 130792 3745 70%
c i 17.42 678 42 4 120 3407 1455 29% 18 130792 3744 70%
c - 18.06 717 29 5 134 5003 1963 33% 16 130783 3744 70%
c d 18.19 717 29 5 134 5003 1963 33% 16 108426 3735 70%
c 2 18.23 717 29 5 134 5003 3463 33% 16 108354 3700 70%
c p 19.55 717 29 5 134 5003 8025 33% 16 108354 3651 69%
c d 19.68 717 29 5 134 5003 7741 33% 16 107649 3650 69%
c d 19.71 717 29 5 134 5003 7740 33% 16 107648 3649 69%
c # 20.20 717 25 5 147 6013 8437 33% 15 107648 3649 69%
c } 20.59 717 23 5 154 7002 9141 33% 14 107648 3649 69%
c [ 20.59 717 24 5 154 7002 9141 75% 19 107648 3649 69%
c - 20.70 679 24 6 154 7013 2630 75% 19 107648 3649 69%
c ] 21.08 679 23 6 155 8131 3239 59% 18 107648 3649 69%
c 1 21.08 679 23 6 155 8131 3239 59% 18 107648 3649 69%
c 
c --- [ writing output ] -----------------------------------------------------
c 
c writing simplified CNF to DIMACS file 'simp/12.cubes317.adj.simp1'
c 
c  seconds   reductions  redundant   irredundant
c          MB    restarts       trail       variables
c           level   conflicts       glue         remaining
c 
c * 21.08 679 23 6 155 8131 3239 59% 18 107648 3649 69%
c opening file to write 'simp/12.cubes317.adj.simp1'
c writing 'p cnf 5320 107648' header
c closing file 'simp/12.cubes317.adj.simp1'
c after writing 29715375 bytes 28.3 MB
c wrote 107648 clauses in 0.23 seconds process time
c 
c --- [ writing extension ] --------------------------------------------------
c 
c writing extension stack to 'simp/12.cubes317.adj.ext1'
c opening file to write 'simp/12.cubes317.adj.ext1'
c closing file 'simp/12.cubes317.adj.ext1'
c after writing 24615 bytes 0.0 MB
c wrote 1682 witnesses in 0.00 seconds process time
c 
c --- [ result ] -------------------------------------------------------------
c 
s SATISFIABLE
c 
c --- [ run-time profiling ] -------------------------------------------------
c 
c process time taken by individual solving procedures
c (percentage relative to process time for solving)
c 
c        10.55   86.50% search
c         8.88   72.77% parse
c         8.16   66.89% unstable
c         1.65   13.50% simplify
c         1.46   11.99% stable
c         1.33   10.86% probe
c         0.93    7.61% lucky
c         0.03    0.24% ternary
c   =================================
c        12.20   57.25% solve
c 
c last line shows process time for solving
c (percentage relative to total process time)
c 
c --- [ statistics ] ---------------------------------------------------------
c 
c chronological:              1889        23.23 %  of conflicts
c conflicts:                  8131       666.50    per second
c decisions:                 23257      1906.39    per second
c fixed:                      1660        31.20 %  of all variables
c learned:                    7925        97.47 %  per conflict
c learned_lits:             957945       100.00 %  learned literals
c minimized:                     0         0.00 %  learned literals
c shrunken:                 527662        55.08 %  learned literals
c minishrunken:              80628         8.42 %  learned literals
c propagations:            1771353         0.15 M  per second
c reduced:                    2399        29.50 %  per conflict
c rephased:                      3      2710.33    interval
c restarts:                    155        52.46    interval
c stabilizing:                   2        38.49 %  of conflicts
c substituted:                  11         0.21 %  of all variables
c subsumed:                   2490         0.13 %  of all clauses
c ternary:                    1500         0.46 %  of resolved
c weakened:                     22         2.00    average size
c 
c seconds are measured in process time for solving
c 
c --- [ resources ] ----------------------------------------------------------
c 
c total process time since initialization:        21.31    seconds
c total real time since initialization:           21.38    seconds
c maximum resident set size of process:          782.70    MB
c 
c --- [ shutting down ] ------------------------------------------------------
c 
c exit 10
c --- [ banner ] -------------------------------------------------------------
c 
c CaDiCaL Radically Simplified CDCL SAT Solver
c Copyright (c) 2016-2021 A. Biere, M. Fleury, N. Froleyks
c 
c Version 1.5.2 ca9bff05c11bde5eae4912f9932871d1527e61d8
c g++ (GCC) 9.3.0 -Wall -Wextra -O3 -DNDEBUG
c Sun May 1 02:23:23 EDT 2022 Linux gra-login1 3.10.0-1160.59.1.el7.x86_64 x86_64
c 
c --- [ limit ] --------------------------------------------------------------
c 
c setting conflict limit to 200000 conflicts (due to '200000')
c 
c --- [ parsing input ] ------------------------------------------------------
c 
c reading DIMACS file from 'simp/12.cubes317.adj.simp1'
c opening file to read 'simp/12.cubes317.adj.simp1'
c found 'p cnf 5320 107648' header
c parsed 107648 clauses in 0.39 seconds process time
c closing file 'simp/12.cubes317.adj.simp1'
c after reading 29715375 bytes 28.3 MB
c 
c --- [ options ] ------------------------------------------------------------
c 
c all options are set to their default value
c 
c --- [ solving ] ------------------------------------------------------------
c 
c time measured in process time since initialization
c 
c  seconds  reductions  redundant  irredundant
c         MB    restarts       trail      variables
c          level   conflicts       glue        remaining
c 
c *  0.40 36  0 0   0    0    0  0% 0 107648 3625 68%
c {  0.45 41  0 0   0    0    0  0% 0 107648 3625 68%
c -  0.60 44 84 1   0  300  253 29% 26 107648 3625 68%
c -  1.06 74 50 2   7  919  607 24% 21 107648 3625 68%
c }  1.10 74 47 2   7 1001  662 24% 20 107648 3625 68%
c [  1.10 74  0 2   7 1001  662  0% 0 107648 3625 68%
c O  1.10 74 36 2   7 1002  663  6% 7 107648 3625 68%
c -  1.43 73 66 3   7 1848  972 25% 17 107648 3625 68%
c ]  1.78 73 43 3   8 3003 1810 34% 16 107648 3625 68%
c {  1.78 73 47 3   8 3003 1810 35% 20 107648 3625 68%
c F  1.81 73 47 3   8 3004 1811 35% 20 107648 3625 68%
c -  1.91 73 45 4   8 3086 1397 35% 19 107648 3625 68%
c -  3.10 72 34 5  75 4635 1688 31% 16 107648 3625 68%
c 2  3.49 72 33 5 102 5001 3076 30% 16 107632 3625 68%
c p  4.80 72 33 5 102 5001 7943 30% 16 107632 3619 68%
c #  5.66 72 32 5 181 6009 8616 30% 16 107632 3619 68%
c -  5.99 100 31 6 192 6492 2356 30% 16 107618 3619 68%
c }  6.17 100 29 6 194 7005 2676 30% 16 107618 3619 68%
c [  6.17 100 43 6 194 7005 2676 34% 16 107618 3619 68%
c -  6.76 129 31 7 195 8658 2688 34% 15 107618 3619 68%
c 
c  seconds   reductions  redundant   irredundant
c          MB    restarts       trail       variables
c           level   conflicts       glue         remaining
c 
c s  7.24 129 28 7 196 9785 3302 33% 14 105476 3619 68%
c v  8.12 129 28 7 196 9785 3302 33% 14 105400 3619 68%
c t  8.16 129 28 7 196 9785 3289 33% 14 105330 3619 68%
c e  8.40 129 28 7 196 9785 3025 33% 14 100061 724 14%
c s  8.46 129 28 7 196 9785 3025 33% 14 99887 724 14%
c I  8.86 100 27 7 196 10011 3168 67% 14 99887 724 14%
c -  9.19 100 26 8 197 11136 3055 65% 15 99887 724 14%
c - 10.23 100 24 9 199 13836 3346 64% 15 99887 724 14%
c d 10.68 100 23 9 199 15001 4117 65% 15 94440 723 14%
c 3 10.68 100 23 9 199 15001 4643 65% 15 94440 723 14%
c p 11.15 100 23 9 199 15001 6113 65% 15 94440 722 14%
c ] 11.18 100 23 9 199 15005 6117 64% 15 94440 722 14%
c { 11.18 100 29 9 199 15005 6117 151% 16 94440 722 14%
c B 11.19 100 29 9 199 15012 6124 151% 16 94440 722 14%
c - 11.84 100 27 10 268 16839 3938 127% 15 94437 722 14%
c - 12.67 100 22 11 270 20140 4133 105% 14 94437 722 14%
c W 13.20 100 22 11 298 21015 4696 101% 13 94437 722 14%
c - 15.07 100 22 12 581 23742 4942 93% 14 94437 722 14%
c i 15.59 100 20 12 612 26161 6216 88% 13 94437 721 14%
c - 16.34 100 20 13 669 27642 4016 86% 13 94434 721 14%
c 
c  seconds   reductions    redundant   irredundant
c          MB     restarts        trail      variables
c           level     conflicts       glue       remaining
c 
c F 16.44 100 20 13 673 28017 4197 86% 13 94434 721 14%
c p 17.94 100 20 13 824 30001 7922 84% 13 94434 721 14%
c } 18.57 100 20 13 862 31005 8596 83% 13 94434 721 14%
c [ 18.57 100 23 13 862 31005 8596 64% 15 94434 721 14%
c - 18.94 100 23 14 862 31843 5858 65% 15 94434 721 14%
c B 20.00 100 22 14 865 36018 8912 66% 15 94434 721 14%
c - 20.20 122 22 15 865 36344 6754 66% 15 94434 721 14%
c s 20.92 122 22 15 866 38221 8152 66% 16 94058 721 14%
c v 21.79 122 22 15 866 38221 8152 66% 16 94030 721 14%
c w 21.82 122 22 15 866 38221 8152 66% 16 94030 721 14%
c t 21.82 122 22 15 866 38221 8149 66% 16 94030 721 14%
c e 22.01 122 22 15 866 38221 8133 66% 16 93896 675 13%
c s 22.10 122 22 15 866 38221 8133 66% 16 93690 675 13%
c - 23.36 122 23 16 868 41144 6848 66% 17 93690 675 13%
c W 24.85 122 23 16 869 45020 9108 66% 17 93690 675 13%
c - 25.29 122 22 17 870 46244 6663 66% 17 93690 675 13%
c p 26.87 122 22 17 870 50003 11153 66% 17 93690 675 13%
c - 27.50 122 22 18 870 51645 7161 65% 17 93690 675 13%
c O 28.63 122 21 18 871 55022 9042 65% 17 93690 675 13%
c - 29.31 122 21 19 873 57346 7471 65% 17 93690 675 13%
c 
c  seconds   reductions     redundant   irredundant
c          MB     restarts         trail      variables
c           level     conflicts        glue       remaining
c 
c ] 30.88 122 20 19 877 63005 11063 65% 16 93690 675 13%
c { 30.88 122 20 19 877 63005 11063 83% 13 93690 675 13%
c - 31.01 123 19 20 886 63347 7865 82% 13 93690 675 13%
c B 31.75 123 19 20 939 66023 9711 80% 13 93690 675 13%
c - 33.50 123 18 21 1125 69647 8588 78% 13 93690 675 13%
c p 35.80 123 18 21 1468 75003 14269 75% 13 93690 673 13%
c - 36.28 123 18 22 1522 76248 9264 75% 13 93684 673 13%
c W 36.86 123 18 22 1618 78024 10283 74% 13 93684 673 13%
c i 37.38 123 18 22 1714 79424 11245 73% 13 93684 667 13%
c } 37.88 123 17 22 1745 80684 11998 73% 13 93684 667 13%
c 1 37.89 123 17 22 1745 80684 11998 73% 13 93684 667 13%
c 
c --- [ writing output ] -----------------------------------------------------
c 
c writing simplified CNF to DIMACS file 'simp/12.cubes317.adj.simp2'
c * 37.89 123 17 22 1745 80684 11998 73% 13 93684 667 13%
c opening file to write 'simp/12.cubes317.adj.simp2'
c writing 'p cnf 5320 93374' header
c closing file 'simp/12.cubes317.adj.simp2'
c after writing 27005299 bytes 25.8 MB
c wrote 93374 clauses in 0.22 seconds process time
c 
c --- [ writing extension ] --------------------------------------------------
c 
c writing extension stack to 'simp/12.cubes317.adj.ext2'
c opening file to write 'simp/12.cubes317.adj.ext2'
c closing file 'simp/12.cubes317.adj.ext2'
c after writing 142907 bytes 0.1 MB
c wrote 6014 witnesses in 0.00 seconds process time
c 
c --- [ result ] -------------------------------------------------------------
c 
s SATISFIABLE
c 
c --- [ run-time profiling ] -------------------------------------------------
c 
c process time taken by individual solving procedures
c (percentage relative to process time for solving)
c 
c        31.53   84.11% search
c        17.08   45.55% unstable
c        13.90   37.07% stable
c         5.96   15.89% simplify
c         2.84    7.57% probe
c         1.80    4.79% vivify
c         0.79    2.10% elim
c         0.51    1.36% walk
c         0.39    1.05% parse
c         0.32    0.86% subsume
c         0.08    0.21% ternary
c         0.05    0.13% lucky
c   =================================
c        37.49   98.39% solve
c 
c last line shows process time for solving
c (percentage relative to total process time)
c 
c --- [ statistics ] ---------------------------------------------------------
c 
c chronological:             14567        18.05 %  of conflicts
c conflicts:                 80684      2152.18    per second
c decisions:                131962      3519.97    per second
c eliminated:                 2941        55.28 %  of all variables
c fixed:                        16         0.30 %  of all variables
c learned:                   79022        97.94 %  per conflict
c learned_lits:            9906041       100.00 %  learned literals
c minimized:                     0         0.00 %  learned literals
c shrunken:                5790783        58.46 %  learned literals
c minishrunken:             846565         8.55 %  learned literals
c propagations:            6043038         0.16 M  per second
c reduced:                   37994        47.09 %  per conflict
c rephased:                     12      6723.67    interval
c restarts:                   1745        46.24    interval
c stabilizing:                   3        52.06 %  of conflicts
c substituted:                   1         0.02 %  of all variables
c subsumed:                  30746         7.59 %  of all clauses
c strengthened:               9980         2.46 %  of all clauses
c ternary:                    3607         0.71 %  of resolved
c vivified:                    115         0.03 %  of all clauses
c walked:                        3     26894.67    interval
c weakened:                   5998         2.88    average size
c 
c seconds are measured in process time for solving
c 
c --- [ resources ] ----------------------------------------------------------
c 
c total process time since initialization:        38.10    seconds
c total real time since initialization:           38.16    seconds
c maximum resident set size of process:          128.92    MB
c 
c --- [ shutting down ] ------------------------------------------------------
c 
c exit 10
WARNING! DIMACS header mismatch: wrong number of variables.
============================[ Problem Statistics ]=============================
|                                                                             |
|  Number of variables:          2921                                         |
|  Number of clauses:           93378                                         |
|  Parse time:                   0.46 s                                       |
|  Simplification time:          0.01 s                                       |
|                                                                             |
============================[ Search Statistics ]====================================================
| Conflicts |          ORIGINAL         |          LEARNT          | Num Sols |      SUBGRAPHS      |
|           |    Vars  Clauses Literals |    Limit  Clauses Lit/Cl |          | Canonical Noncanon. |
=====================================================================================================
|       100 |    2824    93378  6211664 |     2000      100     62 |        0 |        17         0 |
|       257 |    2824    93385  6211848 |     2000      257     70 |        0 |        22         7 |
|       500 |    2824    93403  6212223 |     2000      500     71 |        0 |        26        25 |
|       866 |    2824    93432  6212711 |     2000      866     64 |        0 |        40        54 |
|      1395 |    2824    93455  6213159 |     2000     1395     65 |        0 |        50        77 |
|      2224 |    2824    93525  6214230 |     3601     1225     40 |        0 |        73       147 |
|      3394 |    2824    93556  6214767 |     3601     2395     54 |        0 |        87       178 |
|      5158 |    2824    93612  6216028 |     5002     2360     40 |        0 |       140       234 |
|      7796 |    2824    93688  6217607 |     5002     4998     49 |        0 |       266       310 |
|     11654 |    2824    93702  6217977 |     7550     3204     26 |        0 |       333       324 |
|     17568 |    2824    93850  6221132 |     8783     5351     37 |        0 |       481       472 |
|     26414 |    2824    94047  6224330 |     9994     9808     49 |        0 |       728       669 |
|     39734 |    2824    94393  6229622 |    13604     6338     21 |        0 |      1150      1015 |
|     59453 |    2824    94651  6234734 |    16008    11861     39 |        0 |      1689      1273 |
|     89072 |    2824    95078  6241430 |    19617    15689     41 |        0 |      2101      1700 |
|    133751 |    2824    95968  6253022 |    24415    17566     36 |        0 |      2657      2590 |
=====================================================================================================
Number of solutions   : 0
Canonical subgraphs   : 3421           (172 /sec)
          order  3    : 1              (142857 /sec)
          order  4    : 1              (500000 /sec)
          order  5    : 1              (200000 /sec)
          order  6    : 1              (58824 /sec)
          order  7    : 2              (10000 /sec)
          order  8    : 6              (2588 /sec)
          order  9    : 22             (777 /sec)
          order 10    : 78             (370 /sec)
          order 11    : 268            (287 /sec)
          order 12    : 1018           (209 /sec)
          order 13    : 1538           (160 /sec)
          order 14    : 326            (132 /sec)
          order 15    : 145            (90 /sec)
          order 16    : 10             (103 /sec)
          order 17    : 1              (138 /sec)
          order 18    : 1              (129 /sec)
          order 19    : 1              (122 /sec)
          order 20    : 1              (115 /sec)
          order 21    : 0              (-nan /sec)
Noncanonical subgraphs: 4004           (3879 /sec)
          order  3    : 0              (-nan /sec)
          order  4    : 0              (-nan /sec)
          order  5    : 0              (-nan /sec)
          order  6    : 0              (-nan /sec)
          order  7    : 0              (-nan /sec)
          order  8    : 0              (-nan /sec)
          order  9    : 0              (-nan /sec)
          order 10    : 0              (-nan /sec)
          order 11    : 0              (-nan /sec)
          order 12    : 0              (-nan /sec)
          order 13    : 3351           (8369 /sec)
          order 14    : 623            (1090 /sec)
          order 15    : 28             (574 /sec)
          order 16    : 1              (475 /sec)
          order 17    : 0              (-nan /sec)
          order 18    : 0              (-nan /sec)
          order 19    : 0              (-nan /sec)
          order 20    : 0              (-nan /sec)
Canonicity checking   : 19.8581 s
Noncanonicity checking: 1.03221 s
Total canonicity time : 20.8903 s
database reductions   : 22
restarts              : 509
conflicts             : 186984         (2777 /sec)
decisions             : 256249         (0.00 % random) (3805 /sec)
propagations          : 8508812        (126347 /sec)
conflict literals     : 12770820       (52.78 % deleted)
actual reward         : 0.265165
Memory used           : 91.00 MB
CPU time              : 67.3448 s

UNSATISFIABLE
